read_data	${fname}
read_data	PE_nc10_cl1000.dat
  orthogonal box = (0 0 0) to (80.0586 80.0586 80.0586)
  2 by 2 by 2 MPI processor grid
  reading atoms ...
  10000 atoms
  scanning bonds ...
  1 = max bonds/atom
  scanning angles ...
  1 = max angles/atom
  scanning dihedrals ...
  1 = max dihedrals/atom
  reading bonds ...
  9990 bonds
  reading angles ...
  9980 angles
  reading dihedrals ...
  9970 dihedrals
  2 = max # of 1-2 neighbors
  2 = max # of 1-3 neighbors
  4 = max # of 1-4 neighbors
  6 = max # of special neighbors

# Dreiding potential information
neighbor	0.4 bin
neigh_modify	every 10 one 10000
bond_style      harmonic
bond_coeff	1 350 1.53
angle_style     harmonic
angle_coeff	1 60 109.5
dihedral_style	multi/harmonic
dihedral_coeff	1 1.73 -4.49 0.776 6.99 0.0
pair_style	lj/cut 10.5
pair_coeff	1 1 0.112 4.01 10.5

#####################################################
# Equilibration Stage 1 (Langevin dynamics at 500 K)
velocity 	all create 500.0 1231
fix		1 all nve/limit 0.05
fix		2 all langevin 500.0 500.0 10.0 904297
thermo_style	custom step temp press
thermo          1000
timestep	1
run		10000
Neighbor list info ...
  update every 10 steps, delay 10 steps, check yes
  max neighbors/atom: 10000, page size: 100000
  master list distance cutoff = 10.9
  ghost atom cutoff = 10.9
  binsize = 5.45, bins = 15 15 15
  0 neighbor lists, perpetual/occasional/extra = 0 0 0
WARNING: Inconsistent image flags (src/domain.cpp:782)
Per MPI rank memory allocation (min/avg/max) = 6.491 | 6.581 | 6.662 Mbytes
Step Temp Press 
       0          500 1.8475473e+08 
    1000     498.5009    10651.477 
    2000    502.79976    6351.3495 
    3000     499.2316    4712.3008 
    4000    500.89899    3632.0892 
    5000    501.66778    2879.3118 
    6000    494.00915    2552.6968 
    7000    498.05078    1914.6767 
    8000    500.51045    2087.0215 
    9000    503.68412    1851.0592 
   10000    497.96158    1631.8833 
Loop time of 12.0928 on 8 procs for 10000 steps with 10000 atoms

Performance: 71.448 ns/day, 0.336 hours/ns, 826.941 timesteps/s
90.9% CPU use with 8 MPI tasks x 1 OpenMP threads

MPI task timing breakdown:
Section |  min time  |  avg time  |  max time  |%varavg| %total
---------------------------------------------------------------
Pair    | 2.768      | 3.5214     | 4.5911     |  31.1 | 29.12
Bond    | 0.82665    | 2.0595     | 2.9372     |  49.4 | 17.03
Neigh   | 0.22451    | 0.23777    | 0.24841    |   1.7 |  1.97
Comm    | 3.131      | 5.2246     | 7.1118     |  59.1 | 43.20
Output  | 0.0056794  | 0.0073949  | 0.0097051  |   1.3 |  0.06
Modify  | 0.2863     | 0.70065    | 0.98837    |  27.7 |  5.79
Other   |            | 0.3414     |            |       |  2.82

Nlocal:    1250 ave 1682 max 509 min
Histogram: 1 1 0 0 1 0 0 1 1 3
Nghost:    3210 ave 3376 max 2850 min
Histogram: 1 0 0 0 0 1 1 1 1 3
Neighs:    0 ave 0 max 0 min
Histogram: 8 0 0 0 0 0 0 0 0 0

Total # of neighbors = 0
Ave neighs/atom = 0
Ave special neighs/atom = 5.988
Neighbor list builds = 813
Dangerous builds = 626
unfix 1
unfix 2

#####################################################
# Equilibration Stage 2 (NPT dynamics at 500 K)
fix		1 all npt temp 500.0 500.0 50 iso 0 0 1000 drag 2
fix  		2 all momentum 1 linear 1 1 1
thermo_style	custom step temp press
thermo          1000
timestep	0.5
reset_timestep	0
run		10000
WARNING: Inconsistent image flags (src/domain.cpp:782)
Per MPI rank memory allocation (min/avg/max) = 6.489 | 6.593 | 6.669 Mbytes
Step Temp Press EBOND
       0    497.96158    1631.8833  1631.8833
    1000    503.91276    24.705364  24.705364
    2000    500.91771    176.03544  176.03544
    3000    500.29719   -64.991168 -64.991168
    4000    504.33649    40.484116  40.484116
    5000     497.8141   -47.954021 -47.954021
    6000    499.53932   -359.07537 -359.07537
    7000    498.99072    71.914998  71.914998
    8000    500.61672    57.601795  57.601795
    9000    499.51125    43.423807  43.423807
   10000      504.174   -264.05162 -264.05162
Loop time of 11.9327 on 8 procs for 10000 steps with 10000 atoms

Performance: 36.203 ns/day, 0.663 hours/ns, 838.031 timesteps/s
91.9% CPU use with 8 MPI tasks x 1 OpenMP threads

MPI task timing breakdown:
Section |  min time  |  avg time  |  max time  |%varavg| %total
---------------------------------------------------------------
Pair    | 1.9727     | 3.0557     | 4.3806     |  41.5 | 25.61
Bond    | 1.1086     | 2.5221     | 3.3691     |  46.8 | 21.14
Neigh   | 0.1127     | 0.11875    | 0.1256     |   1.2 |  1.00
Comm    | 1.2899     | 2.2335     | 3.6618     |  54.9 | 18.72
Output  | 0.00017715 | 0.00031087 | 0.0011623  |   0.0 |  0.00
Modify  | 2.7172     | 3.9312     | 4.7343     |  31.6 | 32.94
Other   |            | 0.0713     |            |       |  0.60

Nlocal:    1250 ave 1554 max 542 min
Histogram: 1 0 0 1 0 0 1 1 0 4
Nghost:    3366 ave 3592 max 3128 min
Histogram: 2 0 0 0 3 0 1 0 0 2
Neighs:    0 ave 0 max 0 min
Histogram: 8 0 0 0 0 0 0 0 0 0

Total # of neighbors = 0
Ave neighs/atom = 0
Ave special neighs/atom = 5.988
Neighbor list builds = 500
Dangerous builds = 0
unfix 1
unfix 2

####################################################
# Equilibration Stage 3 (NPT dynamics from 500 K --> 100 K)
fix		1 all npt temp 500 100 50 iso 0 0 1000 drag 2
fix		2 all momentum 1 linear 1 1 1
thermo_style	custom step temp press
thermo          10
timestep	0.5
reset_timestep 	0
run		10000
WARNING: Inconsistent image flags (src/domain.cpp:782)
Per MPI rank memory allocation (min/avg/max) = 6.492 | 6.595 | 6.671 Mbytes
Step Temp Press 
       0      504.174   -264.05162 
      10    500.70151   -238.40046 
      20    494.22893   -105.52825 
      30    497.64019      62.1825 
      40    496.06405    41.274802 
      50    496.93218   -123.46523 
      60    502.71332   -284.94625 
      70    500.43336   -371.83754 
      80     499.9466   -275.63235 
      90    500.17498   -98.481867 
     100    498.74993   -15.471184 
     110     500.8866   -79.574777 
     120    501.54879   -279.56127 
     130    503.34084   -470.47002 
     140    502.38131   -525.15114 
     150    499.89103   -375.98577 
     160    501.84672   -92.936549 
     170    498.56498     66.28864 
     180    498.55527    27.773145 
     190    500.63014   -151.44265 
     200    497.51815   -307.01337 
     210    499.60061   -204.94243 
     220    496.79276    78.281995 
     230    494.48984    382.56852 
     240    500.34059    523.87154 
     250    495.35166    303.19955 
     260    495.17162    -30.15408 
     270    500.45178    -199.5151 
     280    493.67951   -161.44706 
     290    494.40682    108.27481 
     300    498.25586    333.59176 
     310    494.42481    248.96145 
     320    496.02917   -41.034012 
     330    498.91087   -336.69645 
     340    499.97744   -437.07635 
     350    499.55322   -282.79997 
     360    498.98325    4.2944406 
     370    503.72705    214.62918 
     380    497.59925    92.342623 
     390    493.15967   -209.05173 
     400    500.07479   -399.41453 
     410     492.5715   -445.68653 
     420    490.16331   -221.25745 
     430    499.94685    123.45245 
     440    493.97814    177.54621 
     450    490.96202   -7.0478076 
     460     496.6753   -233.92855 
     470    491.77957   -391.93749 
     480    488.68006   -284.64304 
     490    492.43058    24.507723 
     500    492.35571     224.5077 
     510    488.98534    161.01751 
     520    490.22771   -50.507483 
     530    491.13914   -248.34057 
     540    487.60701   -310.19073 
     550    489.80495   -172.54656 
     560    492.35628    6.0886376 
     570    490.89939    67.868785 
     580    492.39203    24.068956 
     590     491.8092   -92.400478 
     600    490.72407   -184.71046 
     610    491.46017    -185.9898 
     620    488.67263   -133.42427 
     630    487.74466   -39.498204 
     640    489.16436    34.964386 
     650    485.31122   -7.5010203 
     660    485.35066     -108.747 
     670    487.18926    -225.7746 
     680    482.24355   -330.79614 
     690    481.93627   -288.93007 
     700    483.49926    -134.2605 
     710    480.37558   -16.819072 
     720    479.29396   -3.2437294 
     730    481.62027   -107.72221 
     740    481.13646   -277.70224 
     750    479.72507   -342.30375 
     760    484.06259   -180.13525 
     770    486.04839    64.018866 
     780    483.55977    192.08818 
     790    485.73244    142.00293 
     800    485.51334    -82.83553 
     810    480.11651   -307.68181 
     820    481.31482   -281.87072 
     830    483.72104   -49.359268 
     840    480.36809    145.01233 
     850    481.55821    148.18505 
     860    482.63816     -96.2046 
     870    480.12253    -409.1394 
     880    479.18678   -511.79973 
     890    478.48721   -354.12739 
     900    478.60067   -112.30158 
     910     477.2892   -28.451199 
     920    477.54382   -153.66776 
     930    479.35976   -366.00934 
     940    477.83201   -508.57339 
     950    479.73876   -447.72532 
     960    481.26396   -268.63324 
     970     478.8929   -132.66591 
     980    478.55994   -115.23997 
     990    475.44312    -252.7188 
    1000    472.85021   -404.83289 
Loop time of 23.4114 on 8 procs for 10000 steps with 10000 atoms

Performance: 18.453 ns/day, 1.301 hours/ns, 427.142 timesteps/s
86.4% CPU use with 8 MPI tasks x 1 OpenMP threads

MPI task timing breakdown:
Section |  min time  |  avg time  |  max time  |%varavg| %total
---------------------------------------------------------------
Pair    | 2.165      | 3.1698     | 4.6718     |  47.3 | 13.54
Bond    | 1.1991     | 2.6501     | 3.3809     |  44.1 | 11.32
Neigh   | 0.1664     | 0.18914    | 0.23169    |   4.6 |  0.81
Comm    | 4.6987     | 5.7025     | 7.2935     |  35.8 | 24.36
Output  | 0.2553     | 0.3214     | 0.67558    |  23.7 |  1.37
Modify  | 9.6287     | 11.216     | 12.137     |  25.9 | 47.91
Other   |            | 0.162      |            |       |  0.69

Nlocal:    1250 ave 1477 max 576 min
Histogram: 1 0 0 0 1 0 0 1 1 4
Nghost:    3840.75 ave 4090 max 3588 min
Histogram: 1 0 1 1 2 0 1 1 0 1
Neighs:    0 ave 0 max 0 min
Histogram: 8 0 0 0 0 0 0 0 0 0

Total # of neighbors = 0
Ave neighs/atom = 0
Ave special neighs/atom = 5.988
Neighbor list builds = 383
Dangerous builds = 0
unfix 1
unfix 2


Total wall time: 0:00:04
